%nprocshared=56
%mem=10GB
# opt pm6 geom=connectivity

Title Card Required

0 1
H-H5'-0.075400                 0  -10.03800000   -1.70400000   -1.56300000 L
O-O5'--0.495400                 0   -9.22900000   -1.73000000   -1.04200000 L
C-C5'--0.006900                 0   -9.24700000   -2.87600000   -0.20600000 L
H-H5'-0.075400                0  -10.08000000   -2.79600000    0.49300000 L
H-H5''-0.075400                0   -9.38700000   -3.77200000   -0.81400000 L
C-C4'-0.162900                 0   -7.94200000   -3.02700000    0.59200000 L
H-H4'-0.117600                 0   -8.06300000   -3.86700000    1.27500000 L
O-O4'--0.369100                 0   -6.87600000   -3.29000000   -0.31600000 L
C-C1'-0.043100                 0   -5.81500000   -2.39800000   -0.04900000 L
H-H1'-0.183800                 0   -5.17100000   -2.84900000    0.70900000 L
N-N9--0.026800                  0   -4.99400000   -2.15300000   -1.25800000 L
C-C8-0.160700                  0   -5.07500000   -1.11000000   -2.21200000 L
H-H8-0.187700                  0   -5.91700000   -0.43300000   -2.26100000 L
N-N7--0.617500                  0   -4.02200000   -1.09700000   -3.02800000 L
C-C5-0.072500                  0   -3.19300000   -2.13700000   -2.62200000 L
C-C6-0.689700                  0   -1.89300000   -2.58200000   -3.00300000 L
N-N6--0.912300                  0   -1.14200000   -1.99900000   -3.96100000 L
H-H61-0.416700                 0   -0.17100000   -2.29800000   -4.11700000 L
H-H62-0.416700                 0   -1.42100000   -1.11400000   -4.35700000 L
N-N1--0.762400                  0   -1.37200000   -3.66900000   -2.35000000 L
C-C2-0.571600                  0   -2.06800000   -4.26500000   -1.34200000 L
H-H2-0.059800                  0   -1.57000000   -5.12000000   -0.84700000 L
N-N3--0.741700                  0   -3.27800000   -3.90300000   -0.88900000 L
C-C4-0.380000                  0   -3.80700000   -2.82300000   -1.52400000 L
C-C3'-0.071300                 0   -7.57900000   -1.75600000    1.38600000 L
H-H3'-0.098500                 0   -8.43100000   -1.07400000    1.37900000 L
C-C2'--0.085400                 0   -6.47200000   -1.15100000    0.53100000 L
H-H2'-0.071800                0   -6.91900000   -0.55100000   -0.25900000 L
H-H2''-0.071800                0   -5.78500000   -0.55000000    1.11700000 L
O-O3'--0.523200                 0   -7.22000000   -1.95100000    2.76200000 L
P-P-1.165900                   0   -6.01200000   -2.88600000    3.33400000 L
O-OP2--0.776100                 0   -6.08100000   -2.89800000    4.81000000 L
O-OP1--0.776100                 0   -5.99700000   -4.17100000    2.60500000 L
O-O5'--0.495400                 0   -4.68700000   -2.07000000    2.92500000 L
C-C5'--0.006900                 0   -4.32300000   -0.86600000    3.57800000 L
H-H5'-0.075400                0   -5.13800000   -0.14600000    3.50900000 L
H-H5''-0.075400                0   -4.10300000   -1.07100000    4.62700000 L
C-C4'-0.162900                 0   -3.06900000   -0.29900000    2.90900000 L
H-H4'-0.117600                 0   -2.26500000   -1.02500000    3.02000000 L
O-O4'--0.369100                 0   -3.32700000   -0.08500000    1.52900000 L
C-C1'-0.035800                 0   -3.00300000    1.25000000    1.20700000 L
H-H1'-0.174600                 0   -1.94200000    1.30800000    0.93800000 L
N-N9-0.057700                  0   -3.83300000    1.66400000    0.05600000 L
C-C8-0.073600                  0   -5.12900000    2.24300000    0.01800000 L
H-H8-0.199700                  0   -5.71000000    2.40700000    0.90900000 L
N-N7--0.572500                  0   -5.50600000    2.52200000   -1.22900000 L
C-C5-0.199100                  0   -4.45700000    2.13900000   -2.05700000 L
C-C6-0.491800                  0   -4.24300000    2.29600000   -3.46700000 L
O-O6--0.569900                  0   -4.93200000    2.82500000   -4.31400000 L
N-N1--0.505300                  0   -2.95700000    1.83000000   -3.90200000 L
H-H1-0.352000                  0   -2.71200000    2.02900000   -4.87400000 L
C-C2-0.743200                  0   -1.98000000    1.38400000   -3.02500000 L
N-N2--0.923000                  0   -0.73300000    1.06600000   -3.56500000 L
H-H21-0.423500                 0   -0.28300000    1.86900000   -4.03700000 L
H-H22-0.423500                 0   -0.07300000    0.64700000   -2.87700000 L
N-N3--0.663600                  0   -2.18600000    1.19800000   -1.70600000 L
C-C4-0.181400                  0   -3.40900000    1.60100000   -1.25700000 L
C-C3'-0.071300                 0   -2.63800000    1.05200000    3.50100000 L
H-H3'-0.098500                 0   -3.06700000    1.21200000    4.49200000 L
C-C2'--0.085400                 0   -3.20700000    2.04100000    2.48600000 L
H-H2'-0.071800                0   -4.26600000    2.20400000    2.68100000 L
H-H2''-0.071800                0   -2.66300000    2.98400000    2.46200000 L
O-O3'--0.523200                 0   -1.21800000    1.06600000    3.56700000 L
P-P-1.165900                   0   -0.35000000    2.31600000    4.10500000 L
O-OP1--0.776100                 0   -1.26100000    3.29500000    4.73500000 L
O-OP2--0.776100                 0    0.79600000    1.77400000    4.86500000 L
O-O5'--0.495400                 0    0.20800000    2.94400000    2.73000000 L
C-C5'--0.006900                 0    1.23100000    2.29000000    1.99100000 L
H-H5'-0.075400                0    2.10700000    2.13600000    2.62400000 L
H-H5''-0.075400                0    0.86900000    1.31800000    1.65800000 L
C-C4'-0.162900                 0    1.65400000    3.11800000    0.77300000 L
H-H4'-0.117600                 0    2.52700000    2.65200000    0.31300000 L
O-O4'--0.369100                 0    0.58000000    3.14800000   -0.16000000 L
C-C1'--0.011600                 0    0.48100000    4.46800000   -0.65300000 L
H-H1'-0.196300                 0    1.27700000    4.62500000   -1.38800000 L
N-N1--0.033900                  0   -0.85300000    4.72900000   -1.31600000 L
C-C6--0.018300                  0   -1.88800000    5.38000000   -0.70000000 L
H-H6-0.229300                  0   -1.77300000    5.71400000    0.33900000 L
C-C5--0.522200                  0   -3.07200000    5.61600000   -1.34900000 L
H-H5-0.186300                  0   -3.89000000    6.13600000   -0.86600000 L
C-C4-0.843900                  0   -3.21500000    5.12700000   -2.69100000 L
N-N4--0.977300                  0   -4.36800000    5.28400000   -3.40200000 L
H-H41-0.431400                 0   -4.51500000    4.70100000   -4.23400000 L
H-H42-0.431400                 0   -5.20500000    5.57400000   -2.93100000 L
N-N3--0.774800                  0   -2.20400000    4.48200000   -3.31400000 L
C-C2-0.795900                  0   -1.01800000    4.24800000   -2.67300000 L
O-O2--0.654800                  0   -0.11000000    3.60600000   -3.17500000 L
C-C3'-0.071300                 0    1.98800000    4.57700000    1.13600000 L
H-H3'-0.098500                 0    2.05000000    4.72100000    2.21700000 L
C-C2'--0.085400                 0    0.79100000    5.32000000    0.57300000 L
H-H2'-0.071800                0   -0.00900000    5.27100000    1.30900000 L
H-H2''-0.071800                0    1.02800000    6.35000000    0.30700000 L
O-O3'--0.523200                 0    3.14600000    5.06000000    0.47300000 L
P-P-1.165900                   0    4.54100000    5.27600000    1.25400000 L
O-OP1--0.776100                 0    5.49700000    5.95500000    0.35100000 L
O-OP2--0.776100                 0    4.25900000    5.84500000    2.58900000 L
O-O5'--0.495400                 0    5.02500000    3.75700000    1.44500000 L
C-C5'--0.006900                 0    5.68500000    3.06600000    0.40300000 L
H-H5'-0.075400                0    5.08300000    3.10100000   -0.50600000 L
H-H5''-0.075400                0    6.65800000    3.53100000    0.21500000 L
C-C4'-0.162900                 0    5.89500000    1.61600000    0.83500000 L
H-H4'-0.117600                 0    6.43800000    1.60400000    1.78400000 L
O-O4'--0.369100                 0    4.63000000    0.98800000    0.97900000 L
C-C1'-0.043100                 0    4.56200000   -0.12600000    0.11600000 L
H-H1'-0.183800                 0    4.88300000   -1.02000000    0.65900000 L
N-N9--0.026800                  0    3.16700000   -0.27600000   -0.33200000 L
C-C8-0.160700                  0    2.53300000    0.15800000   -1.52200000 L
H-H8-0.187700                  0    3.06800000    0.62700000   -2.33400000 L
N-N7--0.617500                  0    1.22500000   -0.08800000   -1.50500000 L
C-C5-0.072500                  0    0.95500000   -0.70300000   -0.28800000 L
C-C6-0.689700                  0   -0.22400000   -1.14700000    0.37100000 L
N-N6--0.912300                  0   -1.45200000   -1.09400000   -0.19300000 L
H-H61-0.416700                 0   -2.27300000   -1.17500000    0.41200000 L
H-H62-0.416700                 0   -1.58400000   -0.54600000   -1.05200000 L
N-N1--0.762400                  0   -0.11600000   -1.67100000    1.63000000 L
C-C2-0.571600                  0    1.09600000   -1.78700000    2.21500000 L
H-H2-0.059800                  0    1.11700000   -2.24200000    3.22200000 L
N-N3--0.741700                  0    2.27800000   -1.38600000    1.69300000 L
C-C4-0.380000                  0    2.17300000   -0.84100000    0.45500000 L
C-C3'-0.071300                 0    6.66900000    0.82200000   -0.22100000 L
H-H3'-0.098500                 0    7.24200000    1.48800000   -0.86400000 L
C-C2'--0.085400                 0    5.54600000    0.15500000   -1.00400000 L
H-H2'-0.071800                0    5.14200000    0.86800000   -1.72100000 L
H-H2''-0.071800                0    5.85300000   -0.76100000   -1.50300000 L
O-O3'--0.523200                 0    7.52800000   -0.08300000    0.45900000 L
P-P-1.165900                   0    8.38700000   -1.23200000   -0.27800000 L
O-OP1--0.776100                 0    8.43700000   -0.95300000   -1.72900000 L
O-OP2--0.776100                 0    9.63900000   -1.43100000    0.48400000 L
O-O5'--0.495400                 0    7.40200000   -2.47900000   -0.01400000 L
C-C5'--0.006900                 0    7.24100000   -3.00000000    1.29700000 L
H-H5'-0.075400                0    8.16600000   -3.49000000    1.60600000 L
H-H5''-0.075400                0    7.02900000   -2.18700000    1.99300000 L
C-C4'-0.162900                 0    6.09600000   -4.01100000    1.37600000 L
H-H4'-0.117600                 0    6.06200000   -4.41400000    2.39100000 L
O-O4'--0.369100                 0    4.84500000   -3.40300000    1.10400000 L
C-C1'-0.068000                 0    3.96700000   -4.37900000    0.57200000 L
H-H1'-0.180400                 0    3.18000000   -4.58500000    1.30200000 L
N-N1--0.023900                  0    3.37000000   -3.87400000   -0.71300000 L
C-C6--0.220900                  0    4.15500000   -3.26400000   -1.67900000 L
H-H6-0.260700                  0    5.22300000   -3.14700000   -1.44400000 L
C-C5-0.002500                  0    3.62600000   -2.81200000   -2.84400000 L
C-C7--0.226900                 0    4.42900000   -2.14000000   -3.89300000 L
H-H71-0.077000                0    4.02200000   -1.14300000   -4.12900000 L
H-H72-0.077000                0    5.48600000   -2.01700000   -3.62200000 L
H-H73-0.077000                0    4.39800000   -2.70700000   -4.83800000 L
C-C4-0.519400                  0    2.20300000   -2.97600000   -3.11700000 L
O-O4--0.556300                  0    1.61200000   -2.58400000   -4.10600000 L
N-N3--0.434000                  0    1.46500000   -3.66500000   -2.14000000 L
H-H3-0.342000                  0    0.41400000   -3.80000000   -2.29200000 L
C-C2-0.567700                  0    1.98900000   -4.11000000   -0.93200000 L
O-O2--0.588100                  0    1.30600000   -4.68500000   -0.11000000 L
C-C3'-0.071300                 0    6.22800000   -5.18000000    0.40300000 L
H-H3'-0.098500                 0    6.57600000   -4.83100000   -0.57100000 L
C-C2'--0.085400                 0    4.78200000   -5.65100000    0.32800000 L
H-H2'-0.071800                0    4.56400000   -6.09900000   -0.64100000 L
H-H2''-0.071800                0    4.57300000   -6.36400000    1.12600000 L
O-O3'--0.523200                 0    7.06200000   -6.19400000    0.92300000 L
H-H3'-0.098500                 0    7.13500000   -6.90700000    0.28000000 L

 1 2 1.0
 2 3 1.0
 3 5 1.0 4 1.0 6 1.0
 4
 5
 6 8 1.0 7 1.0 25 1.0
 7
 8 9 1.0
 9 11 1.0 27 1.0 10 1.0
 10
 11 12 1.5 24 1.5
 12 14 2.0 13 1.0
 13
 14 15 1.0
 15 16 1.5 24 2.0
 16 17 1.5 20 1.5
 17 19 1.0 18 1.0
 18
 19
 20 21 1.5
 21 23 2.0 22 1.0
 22
 23 24 1.5
 24
 25 27 1.0 26 1.0 30 1.0
 26
 27 28 1.0 29 1.0
 28
 29
 30 31 1.0
 31 33 2.0 34 2.0 32 2.0
 32
 33
 34 35 1.0
 35 38 1.0 36 1.0 37 1.0
 36
 37
 38 40 1.0 39 1.0 58 1.0
 39
 40 41 1.0
 41 43 1.0 42 1.0 60 1.0
 42
 43 57 1.5 44 1.5
 44 46 2.0 45 1.0
 45
 46 47 1.0
 47 48 1.5 57 2.0
 48 49 2.0 50 1.0
 49
 50 51 1.0 52 1.5
 51
 52 53 1.5 56 1.5
 53 54 1.0 55 1.0
 54
 55
 56 57 1.5
 57
 58 60 1.0 63 1.0 59 1.0
 59
 60 62 1.0 61 1.0
 61
 62
 63 64 1.0
 64 67 2.0 65 2.0 66 2.0
 65
 66
 67 68 1.0
 68 71 1.0 70 1.0 69 1.0
 69
 70
 71 73 1.0 72 1.0 88 1.0
 72
 73 74 1.0
 74 75 1.0 76 1.0 90 1.0
 75
 76 86 1.0 77 1.5
 77 79 2.0 78 1.0
 78
 79 81 1.5 80 1.0
 80
 81 82 2.0 85 1.5
 82 83 1.0 84 1.0
 83
 84
 85 86 1.5
 86 87 2.0
 87
 88 93 1.0 90 1.0 89 1.0
 89
 90 92 1.0 91 1.0
 91
 92
 93 94 1.0
 94 95 2.0 97 2.0 96 2.0
 95
 96
 97 98 1.0
 98 99 1.0 100 1.0 101 1.0
 99
 100
 101 120 1.0 103 1.0 102 1.0
 102
 103 104 1.0
 104 122 1.0 106 1.0 105 1.0
 105
 106 107 1.5 119 1.5
 107 108 1.0 109 2.0
 108
 109 110 1.0
 110 111 1.5 119 2.0
 111 112 1.5 115 1.5
 112 114 1.0 113 1.0
 113
 114
 115 116 1.5
 116 118 2.0 117 1.0
 117
 118 119 1.5
 119
 120 122 1.0 121 1.0 125 1.0
 121
 122 123 1.0 124 1.0
 123
 124
 125 126 1.0
 126 127 2.0 129 2.0 128 2.0
 127
 128
 129 130 1.0
 130 133 1.0 131 1.0 132 1.0
 131
 132
 133 152 1.0 135 1.0 134 1.0
 134
 135 136 1.0
 136 138 1.0 154 1.0 137 1.0
 137
 138 139 1.5 150 1.5
 139 141 2.0 140 1.0
 140
 141 142 1.0 146 1.5
 142 145 1.0 143 1.0 144 1.0
 143
 144
 145
 146 147 2.0 148 1.5
 147
 148 149 1.0 150 1.5
 149
 150 151 2.0
 151
 152 153 1.0 154 1.0 157 1.0
 153
 154 155 1.0 156 1.0
 155
 156
 157 158 1.0
 158


